(set-option :produce-models true)
(set-logic QF_LRA)
(set-info :notes | Strip-packing problem.|)
(declare-fun x0 () Real)
(declare-fun y0 () Real)
(declare-fun x1 () Real)
(declare-fun y1 () Real)
(declare-fun x2 () Real)
(declare-fun y2 () Real)
(declare-fun x3 () Real)
(declare-fun y3 () Real)
(declare-fun x4 () Real)
(declare-fun y4 () Real)
(declare-fun x5 () Real)
(declare-fun y5 () Real)
(declare-fun x6 () Real)
(declare-fun y6 () Real)
(declare-fun x7 () Real)
(declare-fun y7 () Real)
(declare-fun x8 () Real)
(declare-fun y8 () Real)
(declare-fun x9 () Real)
(declare-fun y9 () Real)
(declare-fun x10 () Real)
(declare-fun y10 () Real)
(declare-fun x11 () Real)
(declare-fun y11 () Real)
(declare-fun x12 () Real)
(declare-fun y12 () Real)
(declare-fun x13 () Real)
(declare-fun y13 () Real)
(declare-fun x14 () Real)
(declare-fun y14 () Real)
(declare-fun z () Real)
(declare-fun c () Real)
(assert (and (= c z) (and (>= x0 0) 
(and (>= y0 0) 
(and (>= x1 0) 
(and (>= y1 0) 
(and (>= x2 0) 
(and (>= y2 0) 
(and (>= x3 0) 
(and (>= y3 0) 
(and (>= x4 0) 
(and (>= y4 0) 
(and (>= x5 0) 
(and (>= y5 0) 
(and (>= x6 0) 
(and (>= y6 0) 
(and (>= x7 0) 
(and (>= y7 0) 
(and (>= x8 0) 
(and (>= y8 0) 
(and (>= x9 0) 
(and (>= y9 0) 
(and (>= x10 0) 
(and (>= y10 0) 
(and (>= x11 0) 
(and (>= y11 0) 
(and (>= x12 0) 
(and (>= y12 0) 
(and (>= x13 0) 
(and (>= y13 0) 
(and (>= x14 0) 
(and (>= y14 0) 
(and (>= z 0) 
(and (>= c 0) 
(and (<= (+ x0 0.3866731795) z) 
(and (<= 0.9557393671 y0) 
(and (<= y0 1.9364916731) 
(and (<= x0 (- 3.7185400089 0.3866731795)) 
(and (>= x0 0) 
(and (<= (+ x1 0.0034430075) z) 
(and (<= 0.9554436175 y1) 
(and (<= y1 1.9364916731) 
(and (<= x1 (- 3.7185400089 0.0034430075)) 
(and (>= x1 0) 
(and (<= (+ x2 0.9959448558) z) 
(and (<= 0.866027473 y2) 
(and (<= y2 1.9364916731) 
(and (<= x2 (- 3.7185400089 0.9959448558)) 
(and (>= x2 0) 
(and (<= (+ x3 0.3465274661) z) 
(and (<= 0.8397704435 y3) 
(and (<= y3 1.9364916731) 
(and (<= x3 (- 3.7185400089 0.3465274661)) 
(and (>= x3 0) 
(and (<= (+ x4 0.4219086989) z) 
(and (<= 0.7939017679 y4) 
(and (<= y4 1.9364916731) 
(and (<= x4 (- 3.7185400089 0.4219086989)) 
(and (>= x4 0) 
(and (<= (+ x5 0.6183940141) z) 
(and (<= 0.7163817821 y5) 
(and (<= y5 1.9364916731) 
(and (<= x5 (- 3.7185400089 0.6183940141)) 
(and (>= x5 0) 
(and (<= (+ x6 0.4793306404) z) 
(and (<= 0.6722271884 y6) 
(and (<= y6 1.9364916731) 
(and (<= x6 (- 3.7185400089 0.4793306404)) 
(and (>= x6 0) 
(and (<= (+ x7 0.4285974053) z) 
(and (<= 0.5711109453 y7) 
(and (<= y7 1.9364916731) 
(and (<= x7 (- 3.7185400089 0.4285974053)) 
(and (>= x7 0) 
(and (<= (+ x8 0.3250351529) z) 
(and (<= 0.5431688489 y8) 
(and (<= y8 1.9364916731) 
(and (<= x8 (- 3.7185400089 0.3250351529)) 
(and (>= x8 0) 
(and (<= (+ x9 0.1398389627) z) 
(and (<= 0.396809389 y9) 
(and (<= y9 1.9364916731) 
(and (<= x9 (- 3.7185400089 0.1398389627)) 
(and (>= x9 0) 
(and (<= (+ x10 0.3141385145) z) 
(and (<= 0.3381536799 y10) 
(and (<= y10 1.9364916731) 
(and (<= x10 (- 3.7185400089 0.3141385145)) 
(and (>= x10 0) 
(and (<= (+ x11 0.8670218553) z) 
(and (<= 0.2321621861 y11) 
(and (<= y11 1.9364916731) 
(and (<= x11 (- 3.7185400089 0.8670218553)) 
(and (>= x11 0) 
(and (<= (+ x12 0.1866787486) z) 
(and (<= 0.1764111275 y12) 
(and (<= y12 1.9364916731) 
(and (<= x12 (- 3.7185400089 0.1866787486)) 
(and (>= x12 0) 
(and (<= (+ x13 0.7500033233) z) 
(and (<= 0.0471830909 y13) 
(and (<= y13 1.9364916731) 
(and (<= x13 (- 3.7185400089 0.7500033233)) 
(and (>= x13 0) 
(and (<= (+ x14 0.017586751) z) 
(and (<= 0.0306118396 y14) 
(and (<= y14 1.9364916731) 
(and (<= x14 (- 3.7185400089 0.017586751)) 
(and (>= x14 0) 
(and (<= c 3.7185400089) 
(and (or (<= (+ x0 0.3866731795) x1) (or (<= (+ x1 0.0034430075) x0) (or (>= (- y0 0.9557393671) y1) (or (>= (- y1 0.9554436175) y0))))) 
(and (or (<= (+ x0 0.3866731795) x2) (or (<= (+ x2 0.9959448558) x0) (or (>= (- y0 0.9557393671) y2) (or (>= (- y2 0.866027473) y0))))) 
(and (or (<= (+ x0 0.3866731795) x3) (or (<= (+ x3 0.3465274661) x0) (or (>= (- y0 0.9557393671) y3) (or (>= (- y3 0.8397704435) y0))))) 
(and (or (<= (+ x0 0.3866731795) x4) (or (<= (+ x4 0.4219086989) x0) (or (>= (- y0 0.9557393671) y4) (or (>= (- y4 0.7939017679) y0))))) 
(and (or (<= (+ x0 0.3866731795) x5) (or (<= (+ x5 0.6183940141) x0) (or (>= (- y0 0.9557393671) y5) (or (>= (- y5 0.7163817821) y0))))) 
(and (or (<= (+ x0 0.3866731795) x6) (or (<= (+ x6 0.4793306404) x0) (or (>= (- y0 0.9557393671) y6) (or (>= (- y6 0.6722271884) y0))))) 
(and (or (<= (+ x0 0.3866731795) x7) (or (<= (+ x7 0.4285974053) x0) (or (>= (- y0 0.9557393671) y7) (or (>= (- y7 0.5711109453) y0))))) 
(and (or (<= (+ x0 0.3866731795) x8) (or (<= (+ x8 0.3250351529) x0) (or (>= (- y0 0.9557393671) y8) (or (>= (- y8 0.5431688489) y0))))) 
(and (or (<= (+ x0 0.3866731795) x9) (or (<= (+ x9 0.1398389627) x0) (or (>= (- y0 0.9557393671) y9) (or (>= (- y9 0.396809389) y0))))) 
(and (or (<= (+ x0 0.3866731795) x10) (or (<= (+ x10 0.3141385145) x0) (or (>= (- y0 0.9557393671) y10) (or (>= (- y10 0.3381536799) y0))))) 
(and (or (<= (+ x0 0.3866731795) x11) (or (<= (+ x11 0.8670218553) x0) (or (>= (- y0 0.9557393671) y11) (or (>= (- y11 0.2321621861) y0))))) 
(and (or (<= (+ x0 0.3866731795) x12) (or (<= (+ x12 0.1866787486) x0) (or (>= (- y0 0.9557393671) y12) (or (>= (- y12 0.1764111275) y0))))) 
(and (or (<= (+ x0 0.3866731795) x13) (or (<= (+ x13 0.7500033233) x0) (or (>= (- y0 0.9557393671) y13) (or (>= (- y13 0.0471830909) y0))))) 
(and (or (<= (+ x0 0.3866731795) x14) (or (<= (+ x14 0.017586751) x0) (or (>= (- y0 0.9557393671) y14) (or (>= (- y14 0.0306118396) y0))))) 
(and (or (<= (+ x1 0.0034430075) x2) (or (<= (+ x2 0.9959448558) x1) (or (>= (- y1 0.9554436175) y2) (or (>= (- y2 0.866027473) y1))))) 
(and (or (<= (+ x1 0.0034430075) x3) (or (<= (+ x3 0.3465274661) x1) (or (>= (- y1 0.9554436175) y3) (or (>= (- y3 0.8397704435) y1))))) 
(and (or (<= (+ x1 0.0034430075) x4) (or (<= (+ x4 0.4219086989) x1) (or (>= (- y1 0.9554436175) y4) (or (>= (- y4 0.7939017679) y1))))) 
(and (or (<= (+ x1 0.0034430075) x5) (or (<= (+ x5 0.6183940141) x1) (or (>= (- y1 0.9554436175) y5) (or (>= (- y5 0.7163817821) y1))))) 
(and (or (<= (+ x1 0.0034430075) x6) (or (<= (+ x6 0.4793306404) x1) (or (>= (- y1 0.9554436175) y6) (or (>= (- y6 0.6722271884) y1))))) 
(and (or (<= (+ x1 0.0034430075) x7) (or (<= (+ x7 0.4285974053) x1) (or (>= (- y1 0.9554436175) y7) (or (>= (- y7 0.5711109453) y1))))) 
(and (or (<= (+ x1 0.0034430075) x8) (or (<= (+ x8 0.3250351529) x1) (or (>= (- y1 0.9554436175) y8) (or (>= (- y8 0.5431688489) y1))))) 
(and (or (<= (+ x1 0.0034430075) x9) (or (<= (+ x9 0.1398389627) x1) (or (>= (- y1 0.9554436175) y9) (or (>= (- y9 0.396809389) y1))))) 
(and (or (<= (+ x1 0.0034430075) x10) (or (<= (+ x10 0.3141385145) x1) (or (>= (- y1 0.9554436175) y10) (or (>= (- y10 0.3381536799) y1))))) 
(and (or (<= (+ x1 0.0034430075) x11) (or (<= (+ x11 0.8670218553) x1) (or (>= (- y1 0.9554436175) y11) (or (>= (- y11 0.2321621861) y1))))) 
(and (or (<= (+ x1 0.0034430075) x12) (or (<= (+ x12 0.1866787486) x1) (or (>= (- y1 0.9554436175) y12) (or (>= (- y12 0.1764111275) y1))))) 
(and (or (<= (+ x1 0.0034430075) x13) (or (<= (+ x13 0.7500033233) x1) (or (>= (- y1 0.9554436175) y13) (or (>= (- y13 0.0471830909) y1))))) 
(and (or (<= (+ x1 0.0034430075) x14) (or (<= (+ x14 0.017586751) x1) (or (>= (- y1 0.9554436175) y14) (or (>= (- y14 0.0306118396) y1))))) 
(and (or (<= (+ x2 0.9959448558) x3) (or (<= (+ x3 0.3465274661) x2) (or (>= (- y2 0.866027473) y3) (or (>= (- y3 0.8397704435) y2))))) 
(and (or (<= (+ x2 0.9959448558) x4) (or (<= (+ x4 0.4219086989) x2) (or (>= (- y2 0.866027473) y4) (or (>= (- y4 0.7939017679) y2))))) 
(and (or (<= (+ x2 0.9959448558) x5) (or (<= (+ x5 0.6183940141) x2) (or (>= (- y2 0.866027473) y5) (or (>= (- y5 0.7163817821) y2))))) 
(and (or (<= (+ x2 0.9959448558) x6) (or (<= (+ x6 0.4793306404) x2) (or (>= (- y2 0.866027473) y6) (or (>= (- y6 0.6722271884) y2))))) 
(and (or (<= (+ x2 0.9959448558) x7) (or (<= (+ x7 0.4285974053) x2) (or (>= (- y2 0.866027473) y7) (or (>= (- y7 0.5711109453) y2))))) 
(and (or (<= (+ x2 0.9959448558) x8) (or (<= (+ x8 0.3250351529) x2) (or (>= (- y2 0.866027473) y8) (or (>= (- y8 0.5431688489) y2))))) 
(and (or (<= (+ x2 0.9959448558) x9) (or (<= (+ x9 0.1398389627) x2) (or (>= (- y2 0.866027473) y9) (or (>= (- y9 0.396809389) y2))))) 
(and (or (<= (+ x2 0.9959448558) x10) (or (<= (+ x10 0.3141385145) x2) (or (>= (- y2 0.866027473) y10) (or (>= (- y10 0.3381536799) y2))))) 
(and (or (<= (+ x2 0.9959448558) x11) (or (<= (+ x11 0.8670218553) x2) (or (>= (- y2 0.866027473) y11) (or (>= (- y11 0.2321621861) y2))))) 
(and (or (<= (+ x2 0.9959448558) x12) (or (<= (+ x12 0.1866787486) x2) (or (>= (- y2 0.866027473) y12) (or (>= (- y12 0.1764111275) y2))))) 
(and (or (<= (+ x2 0.9959448558) x13) (or (<= (+ x13 0.7500033233) x2) (or (>= (- y2 0.866027473) y13) (or (>= (- y13 0.0471830909) y2))))) 
(and (or (<= (+ x2 0.9959448558) x14) (or (<= (+ x14 0.017586751) x2) (or (>= (- y2 0.866027473) y14) (or (>= (- y14 0.0306118396) y2))))) 
(and (or (<= (+ x3 0.3465274661) x4) (or (<= (+ x4 0.4219086989) x3) (or (>= (- y3 0.8397704435) y4) (or (>= (- y4 0.7939017679) y3))))) 
(and (or (<= (+ x3 0.3465274661) x5) (or (<= (+ x5 0.6183940141) x3) (or (>= (- y3 0.8397704435) y5) (or (>= (- y5 0.7163817821) y3))))) 
(and (or (<= (+ x3 0.3465274661) x6) (or (<= (+ x6 0.4793306404) x3) (or (>= (- y3 0.8397704435) y6) (or (>= (- y6 0.6722271884) y3))))) 
(and (or (<= (+ x3 0.3465274661) x7) (or (<= (+ x7 0.4285974053) x3) (or (>= (- y3 0.8397704435) y7) (or (>= (- y7 0.5711109453) y3))))) 
(and (or (<= (+ x3 0.3465274661) x8) (or (<= (+ x8 0.3250351529) x3) (or (>= (- y3 0.8397704435) y8) (or (>= (- y8 0.5431688489) y3))))) 
(and (or (<= (+ x3 0.3465274661) x9) (or (<= (+ x9 0.1398389627) x3) (or (>= (- y3 0.8397704435) y9) (or (>= (- y9 0.396809389) y3))))) 
(and (or (<= (+ x3 0.3465274661) x10) (or (<= (+ x10 0.3141385145) x3) (or (>= (- y3 0.8397704435) y10) (or (>= (- y10 0.3381536799) y3))))) 
(and (or (<= (+ x3 0.3465274661) x11) (or (<= (+ x11 0.8670218553) x3) (or (>= (- y3 0.8397704435) y11) (or (>= (- y11 0.2321621861) y3))))) 
(and (or (<= (+ x3 0.3465274661) x12) (or (<= (+ x12 0.1866787486) x3) (or (>= (- y3 0.8397704435) y12) (or (>= (- y12 0.1764111275) y3))))) 
(and (or (<= (+ x3 0.3465274661) x13) (or (<= (+ x13 0.7500033233) x3) (or (>= (- y3 0.8397704435) y13) (or (>= (- y13 0.0471830909) y3))))) 
(and (or (<= (+ x3 0.3465274661) x14) (or (<= (+ x14 0.017586751) x3) (or (>= (- y3 0.8397704435) y14) (or (>= (- y14 0.0306118396) y3))))) 
(and (or (<= (+ x4 0.4219086989) x5) (or (<= (+ x5 0.6183940141) x4) (or (>= (- y4 0.7939017679) y5) (or (>= (- y5 0.7163817821) y4))))) 
(and (or (<= (+ x4 0.4219086989) x6) (or (<= (+ x6 0.4793306404) x4) (or (>= (- y4 0.7939017679) y6) (or (>= (- y6 0.6722271884) y4))))) 
(and (or (<= (+ x4 0.4219086989) x7) (or (<= (+ x7 0.4285974053) x4) (or (>= (- y4 0.7939017679) y7) (or (>= (- y7 0.5711109453) y4))))) 
(and (or (<= (+ x4 0.4219086989) x8) (or (<= (+ x8 0.3250351529) x4) (or (>= (- y4 0.7939017679) y8) (or (>= (- y8 0.5431688489) y4))))) 
(and (or (<= (+ x4 0.4219086989) x9) (or (<= (+ x9 0.1398389627) x4) (or (>= (- y4 0.7939017679) y9) (or (>= (- y9 0.396809389) y4))))) 
(and (or (<= (+ x4 0.4219086989) x10) (or (<= (+ x10 0.3141385145) x4) (or (>= (- y4 0.7939017679) y10) (or (>= (- y10 0.3381536799) y4))))) 
(and (or (<= (+ x4 0.4219086989) x11) (or (<= (+ x11 0.8670218553) x4) (or (>= (- y4 0.7939017679) y11) (or (>= (- y11 0.2321621861) y4))))) 
(and (or (<= (+ x4 0.4219086989) x12) (or (<= (+ x12 0.1866787486) x4) (or (>= (- y4 0.7939017679) y12) (or (>= (- y12 0.1764111275) y4))))) 
(and (or (<= (+ x4 0.4219086989) x13) (or (<= (+ x13 0.7500033233) x4) (or (>= (- y4 0.7939017679) y13) (or (>= (- y13 0.0471830909) y4))))) 
(and (or (<= (+ x4 0.4219086989) x14) (or (<= (+ x14 0.017586751) x4) (or (>= (- y4 0.7939017679) y14) (or (>= (- y14 0.0306118396) y4))))) 
(and (or (<= (+ x5 0.6183940141) x6) (or (<= (+ x6 0.4793306404) x5) (or (>= (- y5 0.7163817821) y6) (or (>= (- y6 0.6722271884) y5))))) 
(and (or (<= (+ x5 0.6183940141) x7) (or (<= (+ x7 0.4285974053) x5) (or (>= (- y5 0.7163817821) y7) (or (>= (- y7 0.5711109453) y5))))) 
(and (or (<= (+ x5 0.6183940141) x8) (or (<= (+ x8 0.3250351529) x5) (or (>= (- y5 0.7163817821) y8) (or (>= (- y8 0.5431688489) y5))))) 
(and (or (<= (+ x5 0.6183940141) x9) (or (<= (+ x9 0.1398389627) x5) (or (>= (- y5 0.7163817821) y9) (or (>= (- y9 0.396809389) y5))))) 
(and (or (<= (+ x5 0.6183940141) x10) (or (<= (+ x10 0.3141385145) x5) (or (>= (- y5 0.7163817821) y10) (or (>= (- y10 0.3381536799) y5))))) 
(and (or (<= (+ x5 0.6183940141) x11) (or (<= (+ x11 0.8670218553) x5) (or (>= (- y5 0.7163817821) y11) (or (>= (- y11 0.2321621861) y5))))) 
(and (or (<= (+ x5 0.6183940141) x12) (or (<= (+ x12 0.1866787486) x5) (or (>= (- y5 0.7163817821) y12) (or (>= (- y12 0.1764111275) y5))))) 
(and (or (<= (+ x5 0.6183940141) x13) (or (<= (+ x13 0.7500033233) x5) (or (>= (- y5 0.7163817821) y13) (or (>= (- y13 0.0471830909) y5))))) 
(and (or (<= (+ x5 0.6183940141) x14) (or (<= (+ x14 0.017586751) x5) (or (>= (- y5 0.7163817821) y14) (or (>= (- y14 0.0306118396) y5))))) 
(and (or (<= (+ x6 0.4793306404) x7) (or (<= (+ x7 0.4285974053) x6) (or (>= (- y6 0.6722271884) y7) (or (>= (- y7 0.5711109453) y6))))) 
(and (or (<= (+ x6 0.4793306404) x8) (or (<= (+ x8 0.3250351529) x6) (or (>= (- y6 0.6722271884) y8) (or (>= (- y8 0.5431688489) y6))))) 
(and (or (<= (+ x6 0.4793306404) x9) (or (<= (+ x9 0.1398389627) x6) (or (>= (- y6 0.6722271884) y9) (or (>= (- y9 0.396809389) y6))))) 
(and (or (<= (+ x6 0.4793306404) x10) (or (<= (+ x10 0.3141385145) x6) (or (>= (- y6 0.6722271884) y10) (or (>= (- y10 0.3381536799) y6))))) 
(and (or (<= (+ x6 0.4793306404) x11) (or (<= (+ x11 0.8670218553) x6) (or (>= (- y6 0.6722271884) y11) (or (>= (- y11 0.2321621861) y6))))) 
(and (or (<= (+ x6 0.4793306404) x12) (or (<= (+ x12 0.1866787486) x6) (or (>= (- y6 0.6722271884) y12) (or (>= (- y12 0.1764111275) y6))))) 
(and (or (<= (+ x6 0.4793306404) x13) (or (<= (+ x13 0.7500033233) x6) (or (>= (- y6 0.6722271884) y13) (or (>= (- y13 0.0471830909) y6))))) 
(and (or (<= (+ x6 0.4793306404) x14) (or (<= (+ x14 0.017586751) x6) (or (>= (- y6 0.6722271884) y14) (or (>= (- y14 0.0306118396) y6))))) 
(and (or (<= (+ x7 0.4285974053) x8) (or (<= (+ x8 0.3250351529) x7) (or (>= (- y7 0.5711109453) y8) (or (>= (- y8 0.5431688489) y7))))) 
(and (or (<= (+ x7 0.4285974053) x9) (or (<= (+ x9 0.1398389627) x7) (or (>= (- y7 0.5711109453) y9) (or (>= (- y9 0.396809389) y7))))) 
(and (or (<= (+ x7 0.4285974053) x10) (or (<= (+ x10 0.3141385145) x7) (or (>= (- y7 0.5711109453) y10) (or (>= (- y10 0.3381536799) y7))))) 
(and (or (<= (+ x7 0.4285974053) x11) (or (<= (+ x11 0.8670218553) x7) (or (>= (- y7 0.5711109453) y11) (or (>= (- y11 0.2321621861) y7))))) 
(and (or (<= (+ x7 0.4285974053) x12) (or (<= (+ x12 0.1866787486) x7) (or (>= (- y7 0.5711109453) y12) (or (>= (- y12 0.1764111275) y7))))) 
(and (or (<= (+ x7 0.4285974053) x13) (or (<= (+ x13 0.7500033233) x7) (or (>= (- y7 0.5711109453) y13) (or (>= (- y13 0.0471830909) y7))))) 
(and (or (<= (+ x7 0.4285974053) x14) (or (<= (+ x14 0.017586751) x7) (or (>= (- y7 0.5711109453) y14) (or (>= (- y14 0.0306118396) y7))))) 
(and (or (<= (+ x8 0.3250351529) x9) (or (<= (+ x9 0.1398389627) x8) (or (>= (- y8 0.5431688489) y9) (or (>= (- y9 0.396809389) y8))))) 
(and (or (<= (+ x8 0.3250351529) x10) (or (<= (+ x10 0.3141385145) x8) (or (>= (- y8 0.5431688489) y10) (or (>= (- y10 0.3381536799) y8))))) 
(and (or (<= (+ x8 0.3250351529) x11) (or (<= (+ x11 0.8670218553) x8) (or (>= (- y8 0.5431688489) y11) (or (>= (- y11 0.2321621861) y8))))) 
(and (or (<= (+ x8 0.3250351529) x12) (or (<= (+ x12 0.1866787486) x8) (or (>= (- y8 0.5431688489) y12) (or (>= (- y12 0.1764111275) y8))))) 
(and (or (<= (+ x8 0.3250351529) x13) (or (<= (+ x13 0.7500033233) x8) (or (>= (- y8 0.5431688489) y13) (or (>= (- y13 0.0471830909) y8))))) 
(and (or (<= (+ x8 0.3250351529) x14) (or (<= (+ x14 0.017586751) x8) (or (>= (- y8 0.5431688489) y14) (or (>= (- y14 0.0306118396) y8))))) 
(and (or (<= (+ x9 0.1398389627) x10) (or (<= (+ x10 0.3141385145) x9) (or (>= (- y9 0.396809389) y10) (or (>= (- y10 0.3381536799) y9))))) 
(and (or (<= (+ x9 0.1398389627) x11) (or (<= (+ x11 0.8670218553) x9) (or (>= (- y9 0.396809389) y11) (or (>= (- y11 0.2321621861) y9))))) 
(and (or (<= (+ x9 0.1398389627) x12) (or (<= (+ x12 0.1866787486) x9) (or (>= (- y9 0.396809389) y12) (or (>= (- y12 0.1764111275) y9))))) 
(and (or (<= (+ x9 0.1398389627) x13) (or (<= (+ x13 0.7500033233) x9) (or (>= (- y9 0.396809389) y13) (or (>= (- y13 0.0471830909) y9))))) 
(and (or (<= (+ x9 0.1398389627) x14) (or (<= (+ x14 0.017586751) x9) (or (>= (- y9 0.396809389) y14) (or (>= (- y14 0.0306118396) y9))))) 
(and (or (<= (+ x10 0.3141385145) x11) (or (<= (+ x11 0.8670218553) x10) (or (>= (- y10 0.3381536799) y11) (or (>= (- y11 0.2321621861) y10))))) 
(and (or (<= (+ x10 0.3141385145) x12) (or (<= (+ x12 0.1866787486) x10) (or (>= (- y10 0.3381536799) y12) (or (>= (- y12 0.1764111275) y10))))) 
(and (or (<= (+ x10 0.3141385145) x13) (or (<= (+ x13 0.7500033233) x10) (or (>= (- y10 0.3381536799) y13) (or (>= (- y13 0.0471830909) y10))))) 
(and (or (<= (+ x10 0.3141385145) x14) (or (<= (+ x14 0.017586751) x10) (or (>= (- y10 0.3381536799) y14) (or (>= (- y14 0.0306118396) y10))))) 
(and (or (<= (+ x11 0.8670218553) x12) (or (<= (+ x12 0.1866787486) x11) (or (>= (- y11 0.2321621861) y12) (or (>= (- y12 0.1764111275) y11))))) 
(and (or (<= (+ x11 0.8670218553) x13) (or (<= (+ x13 0.7500033233) x11) (or (>= (- y11 0.2321621861) y13) (or (>= (- y13 0.0471830909) y11))))) 
(and (or (<= (+ x11 0.8670218553) x14) (or (<= (+ x14 0.017586751) x11) (or (>= (- y11 0.2321621861) y14) (or (>= (- y14 0.0306118396) y11))))) 
(and (or (<= (+ x12 0.1866787486) x13) (or (<= (+ x13 0.7500033233) x12) (or (>= (- y12 0.1764111275) y13) (or (>= (- y13 0.0471830909) y12))))) 
(and (or (<= (+ x12 0.1866787486) x14) (or (<= (+ x14 0.017586751) x12) (or (>= (- y12 0.1764111275) y14) (or (>= (- y14 0.0306118396) y12))))) 
(and (or (<= (+ x13 0.7500033233) x14) (or (<= (+ x14 0.017586751) x13) (or (>= (- y13 0.0471830909) y14) (or (>= (- y14 0.0306118396) y13))))) )))))))))))))))))))))))))))))))))))))))))))))))))))))))))))))))))))))))))))))))))))))))))))))))))))))))))))))))))))))))))))))))))))))))))))))))))))))))))))))))))))))))))))))))))))))))))))))))))))))))))))))))))))))))
(minimize c)
(check-sat)
(get-objectives)
(exit)
